# ------------------------------------
# HH_frag (complex); H-bond; c1
# ------------------------------------
! SP revDSD-PBEP86-D4/2021 def2-QZVPPD RIJCOSX def2/J TightSCF CPCM
%basis
  basis   "def2-QZVPPD"
  aux     "def2/J"           # RI-J (for SCF/RIJCOSX)
  auxC    "def2-QZVPPD/C"    # required for RI-MP2 (AuxC)
end
%pal
    nprocs 10
end
%MaxCore 2000
%cpcm 
   epsilon 68.27 
end
*xyz 0 1
# His2
C     -2.11959     -2.66524       1.04459
N      0.17760     -2.40458       0.13248
N      0.71414     -0.38066       0.86801
H      1.25229      0.47125       0.96788
C     -0.82159     -1.87390       0.93146
C      1.07280     -1.45183       0.12858
H      2.02799     -1.47481      -0.39971
C     -0.50647     -0.63932       1.42456
H     -1.04666      0.06773       2.04864
H     -2.82307     -2.19276       1.74489
H     -1.92382     -3.69200       1.38884
H     -2.60723     -2.73075       0.05986
# His3
C     -2.43600      2.37500      -1.40300
N     -0.18300      2.42100      -0.14900
N     -0.78500      3.57500       1.67800
H     -0.69900      4.08000       2.55200
C     -1.56600      2.68700      -0.19000
C      0.21600      2.96700       0.98500
H      1.24000      2.95000       1.36600
C     -1.91200      3.44900       0.88600
H     -2.87200      3.86600       1.18700
H     -3.47600      2.67100      -1.21000
H     -2.41900      1.30100      -1.64100
H     -2.07400      2.92000      -2.28800
*


