# ------------------------------------
# HH_frag (complex); H-bond; c1
# ------------------------------------
! Opt wB97X-D3 def2-SVP RIJCOSX def2/J TightSCF CPCM
%pal
  nprocs 10
end
%maxcore 2000
%geom
  OptimizeHydrogens true
  MaxIter 200
end
%cpcm
  epsilon 68.27
end
*xyz 0 1
# His2
 C     -2.11969     -2.67233       1.05020
 N      0.17800     -2.41300       0.13900
 N      0.71600     -0.39000       0.87600
 H      1.25200      0.43200       1.07900
 C     -0.82100     -1.88200       0.93800
 C      1.07400     -1.46100       0.13600
 H      1.96300     -1.32500      -0.48900
 C     -0.50500     -0.64800       1.43200
 H     -1.17600      0.00000       1.98600
 H     -2.81221     -2.14322       1.70483
 H     -1.90996     -3.65844       1.46455
 H     -2.56546     -2.78099       0.06147
# His3
 C     -2.43100      2.37000      -1.39400
 N     -0.17800      2.41300      -0.13900
 N     -0.78000      3.56600       1.68800
 H     -0.74200      3.96000       2.60700
 C     -1.56100      2.68000      -0.18100
 C      0.22100      2.95800       0.99500
 H      1.28600      2.99900       1.21700
 C     -1.90700      3.44200       0.89600
 H     -2.83500      3.96000       1.09600
 H     -3.46000      2.66400      -1.18800
 H     -2.39400      1.30100      -1.60400
 H     -2.06100      2.92300      -2.25700
*
